Version identifier: 22.1.1.0 | 2022-11-28 | 9160aff4d
CPXPARAM_Threads                                 8
CPXPARAM_Emphasis_MIP                            5
CPXPARAM_TimeLimit                               3600
CPXPARAM_MIP_Tolerances_MIPGap                   0.029999999999999999
Tried aggregator 2 times.
MIP Presolve eliminated 124 rows and 64 columns.
Aggregator did 30 substitutions.
Reduced MIP has 323 rows, 251 columns, and 1120 nonzeros.
Reduced MIP has 192 binaries, 59 generals, 0 SOSs, and 0 indicators.
Presolve time = 0.00 sec. (1.09 ticks)
Found incumbent of value 470.000000 after 0.00 sec. (3.25 ticks)
Probing fixed 11 vars, tightened 10 bounds.
Probing time = 0.00 sec. (0.57 ticks)
Tried aggregator 1 time.
Detecting symmetries...
MIP Presolve eliminated 15 rows and 11 columns.
Reduced MIP has 308 rows, 240 columns, and 1060 nonzeros.
Reduced MIP has 181 binaries, 59 generals, 0 SOSs, and 0 indicators.
Presolve time = 0.00 sec. (0.68 ticks)
Probing time = 0.00 sec. (0.52 ticks)
Clique table members: 284.
MIP emphasis: heuristic.
MIP search method: dynamic search.
Parallel mode: deterministic, using up to 8 threads.
Root relaxation solution time = 0.00 sec. (1.11 ticks)

        Nodes                                         Cuts/
   Node  Left     Objective  IInf  Best Integer    Best Bound    ItCnt     Gap

*     0+    0                          470.0000        0.0000           100.00%
*     0     0      integral     0      187.0000      187.0000      119    0.00%
Elapsed time = 0.01 sec. (6.68 ticks, tree = 0.00 MB, solutions = 2)
Version identifier: 22.1.1.0 | 2022-11-28 | 9160aff4d
CPXPARAM_Threads                                 8
CPXPARAM_Emphasis_MIP                            5
CPXPARAM_TimeLimit                               3600
CPXPARAM_MIP_Tolerances_MIPGap                   0.029999999999999999
Tried aggregator 2 times.
MIP Presolve eliminated 177 rows and 103 columns.
Aggregator did 35 substitutions.
Reduced MIP has 437 rows, 338 columns, and 1512 nonzeros.
Reduced MIP has 260 binaries, 78 generals, 0 SOSs, and 0 indicators.
Presolve time = 0.00 sec. (2.06 ticks)
Found incumbent of value 405.000000 after 0.01 sec. (4.82 ticks)
Probing fixed 24 vars, tightened 21 bounds.
Probing time = 0.00 sec. (1.08 ticks)
Tried aggregator 2 times.
Detecting symmetries...
MIP Presolve eliminated 33 rows and 25 columns.
Aggregator did 1 substitutions.
Reduced MIP has 403 rows, 312 columns, and 1377 nonzeros.
Reduced MIP has 236 binaries, 76 generals, 0 SOSs, and 0 indicators.
Presolve time = 0.00 sec. (1.78 ticks)
Probing time = 0.00 sec. (0.92 ticks)
Clique table members: 737.
MIP emphasis: heuristic.
MIP search method: dynamic search.
Parallel mode: deterministic, using up to 8 threads.
Root relaxation solution time = 0.00 sec. (2.80 ticks)

        Nodes                                         Cuts/
   Node  Left     Objective  IInf  Best Integer    Best Bound    ItCnt     Gap

*     0+    0                          405.0000        0.0000           100.00%
*     0     0      integral     0      212.0000      212.0000      223    0.00%
Elapsed time = 0.02 sec. (12.27 ticks, tree = 0.00 MB, solutions = 2)
Version identifier: 22.1.1.0 | 2022-11-28 | 9160aff4d
CPXPARAM_Threads                                 8
CPXPARAM_Emphasis_MIP                            5
CPXPARAM_TimeLimit                               3600
CPXPARAM_MIP_Tolerances_MIPGap                   0.029999999999999999
Tried aggregator 2 times.
MIP Presolve eliminated 187 rows and 110 columns.
Aggregator did 34 substitutions.
Reduced MIP has 550 rows, 425 columns, and 1902 nonzeros.
Reduced MIP has 330 binaries, 95 generals, 0 SOSs, and 0 indicators.
Presolve time = 0.00 sec. (2.53 ticks)
Found incumbent of value 374.000000 after 0.01 sec. (7.09 ticks)
Probing fixed 43 vars, tightened 37 bounds.
Probing time = 0.00 sec. (1.48 ticks)
Tried aggregator 2 times.
MIP Presolve eliminated 62 rows and 47 columns.
Aggregator did 2 substitutions.
Reduced MIP has 486 rows, 376 columns, and 1659 nonzeros.
Reduced MIP has 284 binaries, 92 generals, 0 SOSs, and 0 indicators.
Presolve time = 0.00 sec. (1.89 ticks)
Probing time = 0.00 sec. (1.24 ticks)
Tried aggregator 1 time.
Detecting symmetries...
Reduced MIP has 486 rows, 376 columns, and 1659 nonzeros.
Reduced MIP has 284 binaries, 92 generals, 0 SOSs, and 0 indicators.
Presolve time = 0.00 sec. (1.06 ticks)
Probing time = 0.00 sec. (1.24 ticks)
Clique table members: 1116.
MIP emphasis: heuristic.
MIP search method: dynamic search.
Parallel mode: deterministic, using up to 8 threads.
Root relaxation solution time = 0.00 sec. (3.44 ticks)

        Nodes                                         Cuts/
   Node  Left     Objective  IInf  Best Integer    Best Bound    ItCnt     Gap

*     0+    0                          374.0000        0.0000           100.00%
      0     0      224.5000    41      374.0000      224.5000      268   39.97%
*     0+    0                          242.0000      224.5000             7.23%
      0     0      228.5000    48      242.0000       Cuts: 4      283    5.58%
*     0+    0                          229.0000      228.5000             0.22%
      0     0        cutoff            229.0000      228.5000      283    0.22%
Elapsed time = 0.08 sec. (38.14 ticks, tree = 0.01 MB, solutions = 3)

Root node processing (before b&c):
  Real time             =    0.02 sec. (12.29 ticks)
Parallel b&c, 8 threads:
  Real time             =    0.00 sec. (0.00 ticks)
  Sync time (average)   =    0.00 sec.
  Wait time (average)   =    0.00 sec.
                          ------------
Total (root+branch&cut) =    0.02 sec. (12.29 ticks)
Version identifier: 22.1.1.0 | 2022-11-28 | 9160aff4d
CPXPARAM_Threads                                 8
CPXPARAM_Emphasis_MIP                            5
CPXPARAM_TimeLimit                               3600
CPXPARAM_MIP_Tolerances_MIPGap                   0.029999999999999999
Tried aggregator 4 times.
MIP Presolve eliminated 438 rows and 271 columns.
MIP Presolve modified 3 coefficients.
Aggregator did 70 substitutions.
Reduced MIP has 680 rows, 513 columns, and 2345 nonzeros.
Reduced MIP has 405 binaries, 108 generals, 0 SOSs, and 0 indicators.
Presolve time = 0.01 sec. (4.77 ticks)
Probing fixed 50 vars, tightened 43 bounds.
Probing time = 0.00 sec. (2.06 ticks)
Tried aggregator 2 times.
MIP Presolve eliminated 70 rows and 53 columns.
Aggregator did 2 substitutions.
Reduced MIP has 608 rows, 458 columns, and 2071 nonzeros.
Reduced MIP has 353 binaries, 105 generals, 0 SOSs, and 0 indicators.
Presolve time = 0.00 sec. (2.38 ticks)
Probing time = 0.00 sec. (1.73 ticks)
Tried aggregator 1 time.
Detecting symmetries...
Reduced MIP has 608 rows, 458 columns, and 2071 nonzeros.
Reduced MIP has 353 binaries, 105 generals, 0 SOSs, and 0 indicators.
Presolve time = 0.00 sec. (1.35 ticks)
Probing time = 0.00 sec. (1.73 ticks)
Clique table members: 1467.
MIP emphasis: heuristic.
MIP search method: dynamic search.
Parallel mode: deterministic, using up to 8 threads.
Root relaxation solution time = 0.02 sec. (3.31 ticks)

        Nodes                                         Cuts/
   Node  Left     Objective  IInf  Best Integer    Best Bound    ItCnt     Gap

*     0     0      integral     0      229.0000      229.0000      184    0.00%
Elapsed time = 0.06 sec. (26.80 ticks, tree = 0.00 MB, solutions = 1)
Version identifier: 22.1.1.0 | 2022-11-28 | 9160aff4d
CPXPARAM_Threads                                 8
CPXPARAM_Emphasis_MIP                            5
CPXPARAM_TimeLimit                               3600
CPXPARAM_MIP_Tolerances_MIPGap                   0.029999999999999999
Tried aggregator 3 times.
MIP Presolve eliminated 592 rows and 369 columns.
Aggregator did 113 substitutions.
Reduced MIP has 1008 rows, 734 columns, and 3498 nonzeros.
Reduced MIP has 611 binaries, 123 generals, 0 SOSs, and 0 indicators.
Presolve time = 0.01 sec. (5.66 ticks)
Probing fixed 85 vars, tightened 75 bounds.
Probing time = 0.01 sec. (4.37 ticks)
Tried aggregator 2 times.
MIP Presolve eliminated 134 rows and 93 columns.
Aggregator did 2 substitutions.
Reduced MIP has 872 rows, 639 columns, and 3001 nonzeros.
Reduced MIP has 516 binaries, 123 generals, 0 SOSs, and 0 indicators.
Presolve time = 0.01 sec. (4.52 ticks)
Probing time = 0.00 sec. (2.32 ticks)
Tried aggregator 1 time.
Detecting symmetries...
Reduced MIP has 872 rows, 639 columns, and 3001 nonzeros.
Reduced MIP has 516 binaries, 123 generals, 0 SOSs, and 0 indicators.
Presolve time = 0.00 sec. (1.98 ticks)
Probing fixed 8 vars, tightened 8 bounds.
Probing time = 0.01 sec. (3.50 ticks)
Clique table members: 2057.
MIP emphasis: heuristic.
MIP search method: dynamic search.
Parallel mode: deterministic, using up to 8 threads.
Root relaxation solution time = 0.03 sec. (10.14 ticks)

        Nodes                                         Cuts/
   Node  Left     Objective  IInf  Best Integer    Best Bound    ItCnt     Gap

      0     0      254.0000   102                    254.0000      501         
*     0+    0                          299.0000      254.0000            15.05%
*     0+    0                          260.0000      254.0000             2.31%
      0     0        cutoff            260.0000      260.0000      501    0.00%
Elapsed time = 0.13 sec. (74.61 ticks, tree = 0.01 MB, solutions = 2)

Root node processing (before b&c):
  Real time             =    0.06 sec. (26.82 ticks)
Parallel b&c, 8 threads:
  Real time             =    0.00 sec. (0.00 ticks)
  Sync time (average)   =    0.00 sec.
  Wait time (average)   =    0.00 sec.
                          ------------
Total (root+branch&cut) =    0.06 sec. (26.82 ticks)
Version identifier: 22.1.1.0 | 2022-11-28 | 9160aff4d
CPXPARAM_Threads                                 8
CPXPARAM_Emphasis_MIP                            5
CPXPARAM_TimeLimit                               3600
CPXPARAM_MIP_Tolerances_MIPGap                   0.029999999999999999
Tried aggregator 3 times.
MIP Presolve eliminated 620 rows and 390 columns.
Aggregator did 113 substitutions.
Reduced MIP has 1062 rows, 775 columns, and 3689 nonzeros.
Reduced MIP has 645 binaries, 130 generals, 0 SOSs, and 0 indicators.
Presolve time = 0.01 sec. (5.98 ticks)
Probing fixed 103 vars, tightened 93 bounds.
Probing time = 0.01 sec. (5.16 ticks)
Tried aggregator 2 times.
MIP Presolve eliminated 158 rows and 111 columns.
Aggregator did 3 substitutions.
Reduced MIP has 901 rows, 661 columns, and 3100 nonzeros.
Reduced MIP has 531 binaries, 130 generals, 0 SOSs, and 0 indicators.
Presolve time = 0.01 sec. (4.67 ticks)
Probing time = 0.00 sec. (2.42 ticks)
Tried aggregator 1 time.
Detecting symmetries...
Reduced MIP has 901 rows, 661 columns, and 3100 nonzeros.
Reduced MIP has 531 binaries, 130 generals, 0 SOSs, and 0 indicators.
Presolve time = 0.00 sec. (2.04 ticks)
Probing time = 0.00 sec. (2.42 ticks)
Clique table members: 2148.
MIP emphasis: heuristic.
MIP search method: dynamic search.
Parallel mode: deterministic, using up to 8 threads.
Root relaxation solution time = 0.03 sec. (10.26 ticks)

        Nodes                                         Cuts/
   Node  Left     Objective  IInf  Best Integer    Best Bound    ItCnt     Gap

      0     0      254.0000   124                    254.0000      560         
*     0+    0                          299.0000      254.0000            15.05%
*     0+    0                          260.0000      254.0000             2.31%
      0     0        cutoff            260.0000      260.0000      652    0.00%
Elapsed time = 0.16 sec. (105.99 ticks, tree = 0.01 MB, solutions = 2)

Root node processing (before b&c):
  Real time             =    0.13 sec. (74.66 ticks)
Parallel b&c, 8 threads:
  Real time             =    0.00 sec. (0.00 ticks)
  Sync time (average)   =    0.00 sec.
  Wait time (average)   =    0.00 sec.
                          ------------
Total (root+branch&cut) =    0.13 sec. (74.66 ticks)
Version identifier: 22.1.1.0 | 2022-11-28 | 9160aff4d
CPXPARAM_Threads                                 8
CPXPARAM_Emphasis_MIP                            5
CPXPARAM_TimeLimit                               3600
CPXPARAM_MIP_Tolerances_MIPGap                   0.029999999999999999
Tried aggregator 3 times.
MIP Presolve eliminated 636 rows and 400 columns.
Aggregator did 122 substitutions.
Reduced MIP has 1135 rows, 825 columns, and 3946 nonzeros.
Reduced MIP has 687 binaries, 138 generals, 0 SOSs, and 0 indicators.
Presolve time = 0.01 sec. (6.35 ticks)
Probing fixed 115 vars, tightened 105 bounds.
Probing time = 0.01 sec. (5.80 ticks)
Tried aggregator 2 times.
MIP Presolve eliminated 176 rows and 123 columns.
Aggregator did 3 substitutions.
Reduced MIP has 956 rows, 699 columns, and 3291 nonzeros.
Reduced MIP has 561 binaries, 138 generals, 0 SOSs, and 0 indicators.
Presolve time = 0.01 sec. (4.96 ticks)
Probing time = 0.00 sec. (2.47 ticks)
Tried aggregator 1 time.
Detecting symmetries...
Reduced MIP has 956 rows, 699 columns, and 3291 nonzeros.
Reduced MIP has 561 binaries, 138 generals, 0 SOSs, and 0 indicators.
Presolve time = 0.00 sec. (2.16 ticks)
Probing time = 0.00 sec. (2.47 ticks)
Clique table members: 2290.
MIP emphasis: heuristic.
MIP search method: dynamic search.
Parallel mode: deterministic, using up to 8 threads.
Root relaxation solution time = 0.03 sec. (10.61 ticks)

        Nodes                                         Cuts/
   Node  Left     Objective  IInf  Best Integer    Best Bound    ItCnt     Gap

      0     0      254.0000   116                    254.0000      535         
*     0+    0                          298.0000      254.0000            14.77%
*     0+    0                          260.0000      254.0000             2.31%
      0     0        cutoff            260.0000      254.6000      652    2.08%
Elapsed time = 0.16 sec. (117.26 ticks, tree = 0.01 MB, solutions = 2)
Version identifier: 22.1.1.0 | 2022-11-28 | 9160aff4d
CPXPARAM_Threads                                 8
CPXPARAM_Emphasis_MIP                            5
CPXPARAM_TimeLimit                               3600
CPXPARAM_MIP_Tolerances_MIPGap                   0.029999999999999999
Tried aggregator 3 times.
MIP Presolve eliminated 805 rows and 497 columns.
Aggregator did 166 substitutions.
Reduced MIP has 1546 rows, 1126 columns, and 5476 nonzeros.
Reduced MIP has 974 binaries, 152 generals, 0 SOSs, and 0 indicators.
Presolve time = 0.02 sec. (9.31 ticks)
Probing fixed 124 vars, tightened 113 bounds.
Probing time = 0.01 sec. (9.52 ticks)
Tried aggregator 2 times.
MIP Presolve eliminated 191 rows and 131 columns.
Aggregator did 2 substitutions.
Reduced MIP has 1353 rows, 993 columns, and 4759 nonzeros.
Reduced MIP has 842 binaries, 151 generals, 0 SOSs, and 0 indicators.
Presolve time = 0.01 sec. (5.45 ticks)
Probing time = 0.00 sec. (2.79 ticks)
Tried aggregator 1 time.
Detecting symmetries...
Reduced MIP has 1353 rows, 993 columns, and 4759 nonzeros.
Reduced MIP has 842 binaries, 151 generals, 0 SOSs, and 0 indicators.
Presolve time = 0.00 sec. (3.10 ticks)
Probing time = 0.00 sec. (2.79 ticks)
Clique table members: 3241.
MIP emphasis: heuristic.
MIP search method: dynamic search.
Parallel mode: deterministic, using up to 8 threads.
Root relaxation solution time = 0.04 sec. (23.22 ticks)

        Nodes                                         Cuts/
   Node  Left     Objective  IInf  Best Integer    Best Bound    ItCnt     Gap

*     0+    0                          992.0000        0.0000           100.00%
      0     0      254.0000   109      992.0000      254.0000      896   74.40%
*     0+    0                          260.0000      254.0000             2.31%

Gomory fractional cuts applied:  2

Root node processing (before b&c):
  Real time             =    0.16 sec. (117.32 ticks)
Parallel b&c, 8 threads:
  Real time             =    0.00 sec. (0.00 ticks)
  Sync time (average)   =    0.00 sec.
  Wait time (average)   =    0.00 sec.
                          ------------
Total (root+branch&cut) =    0.16 sec. (117.32 ticks)

Zero-half cuts applied:  3
Gomory fractional cuts applied:  2

Root node processing (before b&c):
  Real time             =    0.16 sec. (106.05 ticks)
Parallel b&c, 8 threads:
  Real time             =    0.00 sec. (0.00 ticks)
  Sync time (average)   =    0.00 sec.
  Wait time (average)   =    0.00 sec.
                          ------------
Total (root+branch&cut) =    0.16 sec. (106.05 ticks)
Version identifier: 22.1.1.0 | 2022-11-28 | 9160aff4d
CPXPARAM_Threads                                 8
CPXPARAM_Emphasis_MIP                            5
CPXPARAM_TimeLimit                               3600
CPXPARAM_MIP_Tolerances_MIPGap                   0.029999999999999999
Tried aggregator 3 times.
MIP Presolve eliminated 972 rows and 589 columns.
Aggregator did 213 substitutions.
Reduced MIP has 1866 rows, 1342 columns, and 6594 nonzeros.
Reduced MIP has 1183 binaries, 159 generals, 0 SOSs, and 0 indicators.
Presolve time = 0.01 sec. (11.14 ticks)
Probing fixed 185 vars, tightened 167 bounds.
Probing time = 0.02 sec. (11.75 ticks)
Tried aggregator 2 times.
MIP Presolve eliminated 291 rows and 200 columns.
Aggregator did 3 substitutions.
Reduced MIP has 1572 rows, 1139 columns, and 5502 nonzeros.
Reduced MIP has 983 binaries, 156 generals, 0 SOSs, and 0 indicators.
Presolve time = 0.01 sec. (6.32 ticks)
Probing time = 0.00 sec. (2.77 ticks)
Tried aggregator 1 time.
Detecting symmetries...
Reduced MIP has 1572 rows, 1139 columns, and 5502 nonzeros.
Reduced MIP has 983 binaries, 156 generals, 0 SOSs, and 0 indicators.
Presolve time = 0.00 sec. (3.56 ticks)
Probing time = 0.00 sec. (2.76 ticks)
Clique table members: 3366.
MIP emphasis: heuristic.
MIP search method: dynamic search.
Parallel mode: deterministic, using up to 8 threads.
Root relaxation solution time = 0.04 sec. (24.73 ticks)

        Nodes                                         Cuts/
   Node  Left     Objective  IInf  Best Integer    Best Bound    ItCnt     Gap

      0     0      274.0000   118                    274.0000      914         
*     0+    0                          299.0000      274.0000             8.36%
*     0+    0                          298.0000      274.0000             8.05%
      0     0        cutoff            298.0000      298.0000      978    0.00%
Elapsed time = 0.25 sec. (195.86 ticks, tree = 0.01 MB, solutions = 2)

Root node processing (before b&c):
  Real time             =    0.15 sec. (89.36 ticks)
Parallel b&c, 8 threads:
  Real time             =    0.00 sec. (0.00 ticks)
  Sync time (average)   =    0.00 sec.
  Wait time (average)   =    0.00 sec.
                          ------------
Total (root+branch&cut) =    0.15 sec. (89.36 ticks)

Zero-half cuts applied:  17
Lift and project cuts applied:  1
Gomory fractional cuts applied:  2

Root node processing (before b&c):
  Real time             =    0.25 sec. (195.94 ticks)
Parallel b&c, 8 threads:
  Real time             =    0.00 sec. (0.00 ticks)
  Sync time (average)   =    0.00 sec.
  Wait time (average)   =    0.00 sec.
                          ------------
Total (root+branch&cut) =    0.25 sec. (195.94 ticks)

Zero-half cuts applied:  1
Lift and project cuts applied:  1
Gomory fractional cuts applied:  1

Root node processing (before b&c):
  Real time             =    0.08 sec. (38.16 ticks)
Parallel b&c, 8 threads:
  Real time             =    0.00 sec. (0.00 ticks)
  Sync time (average)   =    0.00 sec.
  Wait time (average)   =    0.00 sec.
                          ------------
Total (root+branch&cut) =    0.08 sec. (38.16 ticks)

Root node processing (before b&c):
  Real time             =    0.01 sec. (6.70 ticks)
Parallel b&c, 8 threads:
  Real time             =    0.00 sec. (0.00 ticks)
  Sync time (average)   =    0.00 sec.
  Wait time (average)   =    0.00 sec.
                          ------------
Total (root+branch&cut) =    0.01 sec. (6.70 ticks)
Version identifier: 22.1.1.0 | 2022-11-28 | 9160aff4d
CPXPARAM_Threads                                 8
CPXPARAM_Emphasis_MIP                            5
CPXPARAM_TimeLimit                               3600
CPXPARAM_MIP_Tolerances_MIPGap                   0.029999999999999999
Tried aggregator 2 times.
MIP Presolve eliminated 124 rows and 64 columns.
Aggregator did 30 substitutions.
Reduced MIP has 323 rows, 251 columns, and 1120 nonzeros.
Reduced MIP has 192 binaries, 59 generals, 0 SOSs, and 0 indicators.
Presolve time = 0.01 sec. (1.09 ticks)
Found incumbent of value 470.000000 after 0.03 sec. (3.25 ticks)
Probing fixed 11 vars, tightened 10 bounds.
Probing time = 0.00 sec. (0.57 ticks)
Tried aggregator 1 time.
Detecting symmetries...
MIP Presolve eliminated 15 rows and 11 columns.
Reduced MIP has 308 rows, 240 columns, and 1060 nonzeros.
Reduced MIP has 181 binaries, 59 generals, 0 SOSs, and 0 indicators.
Presolve time = 0.00 sec. (0.68 ticks)
Probing time = 0.00 sec. (0.52 ticks)
Clique table members: 284.
MIP emphasis: heuristic.
MIP search method: dynamic search.
Parallel mode: deterministic, using up to 8 threads.
Root relaxation solution time = 0.00 sec. (1.11 ticks)

        Nodes                                         Cuts/
   Node  Left     Objective  IInf  Best Integer    Best Bound    ItCnt     Gap

*     0+    0                          470.0000        0.0000           100.00%
*     0     0      integral     0      187.0000      187.0000      119    0.00%
Elapsed time = 0.05 sec. (6.68 ticks, tree = 0.00 MB, solutions = 2)
Version identifier: 22.1.1.0 | 2022-11-28 | 9160aff4d
CPXPARAM_Threads                                 8
CPXPARAM_Emphasis_MIP                            5
CPXPARAM_TimeLimit                               3600
CPXPARAM_MIP_Tolerances_MIPGap                   0.029999999999999999
Tried aggregator 2 times.
MIP Presolve eliminated 177 rows and 103 columns.
Aggregator did 35 substitutions.
Reduced MIP has 437 rows, 338 columns, and 1512 nonzeros.
Reduced MIP has 260 binaries, 78 generals, 0 SOSs, and 0 indicators.
Presolve time = 0.01 sec. (2.06 ticks)
Found incumbent of value 405.000000 after 0.01 sec. (4.82 ticks)
Probing fixed 24 vars, tightened 21 bounds.
Probing time = 0.00 sec. (1.08 ticks)
Tried aggregator 2 times.
Detecting symmetries...
MIP Presolve eliminated 33 rows and 25 columns.
Aggregator did 1 substitutions.
Reduced MIP has 403 rows, 312 columns, and 1377 nonzeros.
Reduced MIP has 236 binaries, 76 generals, 0 SOSs, and 0 indicators.
Presolve time = 0.00 sec. (1.78 ticks)
Probing time = 0.00 sec. (0.92 ticks)
Clique table members: 737.
MIP emphasis: heuristic.
MIP search method: dynamic search.
Parallel mode: deterministic, using up to 8 threads.
Root relaxation solution time = 0.00 sec. (2.80 ticks)

        Nodes                                         Cuts/
   Node  Left     Objective  IInf  Best Integer    Best Bound    ItCnt     Gap

*     0+    0                          405.0000        0.0000           100.00%
*     0     0      integral     0      212.0000      212.0000      223    0.00%
Elapsed time = 0.02 sec. (12.27 ticks, tree = 0.00 MB, solutions = 2)
Version identifier: 22.1.1.0 | 2022-11-28 | 9160aff4d
CPXPARAM_Threads                                 8
CPXPARAM_Emphasis_MIP                            5
CPXPARAM_TimeLimit                               3600
CPXPARAM_MIP_Tolerances_MIPGap                   0.029999999999999999
Tried aggregator 2 times.
MIP Presolve eliminated 187 rows and 110 columns.
Aggregator did 34 substitutions.
Reduced MIP has 550 rows, 425 columns, and 1902 nonzeros.
Reduced MIP has 330 binaries, 95 generals, 0 SOSs, and 0 indicators.
Presolve time = 0.01 sec. (2.53 ticks)
Found incumbent of value 374.000000 after 0.02 sec. (7.09 ticks)
Probing fixed 43 vars, tightened 37 bounds.
Probing time = 0.00 sec. (1.48 ticks)
Tried aggregator 2 times.
MIP Presolve eliminated 62 rows and 47 columns.
Aggregator did 2 substitutions.
Reduced MIP has 486 rows, 376 columns, and 1659 nonzeros.
Reduced MIP has 284 binaries, 92 generals, 0 SOSs, and 0 indicators.
Presolve time = 0.00 sec. (1.89 ticks)
Probing time = 0.00 sec. (1.24 ticks)
Tried aggregator 1 time.
Detecting symmetries...
Reduced MIP has 486 rows, 376 columns, and 1659 nonzeros.
Reduced MIP has 284 binaries, 92 generals, 0 SOSs, and 0 indicators.
Presolve time = 0.00 sec. (1.06 ticks)
Probing time = 0.00 sec. (1.24 ticks)
Clique table members: 1116.
MIP emphasis: heuristic.
MIP search method: dynamic search.
Parallel mode: deterministic, using up to 8 threads.
Root relaxation solution time = 0.00 sec. (3.44 ticks)

        Nodes                                         Cuts/
   Node  Left     Objective  IInf  Best Integer    Best Bound    ItCnt     Gap

*     0+    0                          374.0000        0.0000           100.00%
      0     0      224.5000    41      374.0000      224.5000      268   39.97%
*     0+    0                          242.0000      224.5000             7.23%
      0     0      228.5000    48      242.0000       Cuts: 4      283    5.58%
*     0+    0                          229.0000      228.5000             0.22%
      0     0        cutoff            229.0000      228.5000      283    0.22%
Elapsed time = 0.09 sec. (38.14 ticks, tree = 0.01 MB, solutions = 3)

Root node processing (before b&c):
  Real time             =    0.02 sec. (12.29 ticks)
Parallel b&c, 8 threads:
  Real time             =    0.00 sec. (0.00 ticks)
  Sync time (average)   =    0.00 sec.
  Wait time (average)   =    0.00 sec.
                          ------------
Total (root+branch&cut) =    0.02 sec. (12.29 ticks)
Version identifier: 22.1.1.0 | 2022-11-28 | 9160aff4d
CPXPARAM_Threads                                 8
CPXPARAM_Emphasis_MIP                            5
CPXPARAM_TimeLimit                               3600
CPXPARAM_MIP_Tolerances_MIPGap                   0.029999999999999999
Tried aggregator 4 times.
MIP Presolve eliminated 438 rows and 271 columns.
MIP Presolve modified 3 coefficients.
Aggregator did 70 substitutions.
Reduced MIP has 680 rows, 513 columns, and 2345 nonzeros.
Reduced MIP has 405 binaries, 108 generals, 0 SOSs, and 0 indicators.
Presolve time = 0.01 sec. (4.77 ticks)
Probing fixed 50 vars, tightened 43 bounds.
Probing time = 0.00 sec. (2.06 ticks)
Tried aggregator 2 times.
MIP Presolve eliminated 70 rows and 53 columns.
Aggregator did 2 substitutions.
Reduced MIP has 608 rows, 458 columns, and 2071 nonzeros.
Reduced MIP has 353 binaries, 105 generals, 0 SOSs, and 0 indicators.
Presolve time = 0.00 sec. (2.38 ticks)
Probing time = 0.00 sec. (1.73 ticks)
Tried aggregator 1 time.
Detecting symmetries...
Reduced MIP has 608 rows, 458 columns, and 2071 nonzeros.
Reduced MIP has 353 binaries, 105 generals, 0 SOSs, and 0 indicators.
Presolve time = 0.00 sec. (1.35 ticks)
Probing time = 0.00 sec. (1.73 ticks)
Clique table members: 1467.
MIP emphasis: heuristic.
MIP search method: dynamic search.
Parallel mode: deterministic, using up to 8 threads.
Root relaxation solution time = 0.02 sec. (3.31 ticks)

        Nodes                                         Cuts/
   Node  Left     Objective  IInf  Best Integer    Best Bound    ItCnt     Gap

*     0     0      integral     0      229.0000      229.0000      184    0.00%
Elapsed time = 0.06 sec. (26.80 ticks, tree = 0.00 MB, solutions = 1)
Version identifier: 22.1.1.0 | 2022-11-28 | 9160aff4d
CPXPARAM_Threads                                 8
CPXPARAM_Emphasis_MIP                            5
CPXPARAM_TimeLimit                               3600
CPXPARAM_MIP_Tolerances_MIPGap                   0.029999999999999999
Tried aggregator 3 times.
MIP Presolve eliminated 592 rows and 369 columns.
Aggregator did 113 substitutions.
Reduced MIP has 1008 rows, 734 columns, and 3498 nonzeros.
Reduced MIP has 611 binaries, 123 generals, 0 SOSs, and 0 indicators.
Presolve time = 0.01 sec. (5.66 ticks)
Probing fixed 85 vars, tightened 75 bounds.
Probing time = 0.01 sec. (4.37 ticks)
Tried aggregator 2 times.
MIP Presolve eliminated 134 rows and 93 columns.
Aggregator did 2 substitutions.
Reduced MIP has 872 rows, 639 columns, and 3001 nonzeros.
Reduced MIP has 516 binaries, 123 generals, 0 SOSs, and 0 indicators.
Presolve time = 0.01 sec. (4.52 ticks)
Probing time = 0.00 sec. (2.32 ticks)
Tried aggregator 1 time.
Detecting symmetries...
Reduced MIP has 872 rows, 639 columns, and 3001 nonzeros.
Reduced MIP has 516 binaries, 123 generals, 0 SOSs, and 0 indicators.
Presolve time = 0.00 sec. (1.98 ticks)
Probing fixed 8 vars, tightened 8 bounds.
Probing time = 0.01 sec. (3.50 ticks)
Clique table members: 2057.
MIP emphasis: heuristic.
MIP search method: dynamic search.
Parallel mode: deterministic, using up to 8 threads.
Root relaxation solution time = 0.03 sec. (10.14 ticks)

        Nodes                                         Cuts/
   Node  Left     Objective  IInf  Best Integer    Best Bound    ItCnt     Gap

      0     0      254.0000   102                    254.0000      501         
*     0+    0                          299.0000      254.0000            15.05%
*     0+    0                          260.0000      254.0000             2.31%
      0     0        cutoff            260.0000      260.0000      501    0.00%
Elapsed time = 0.14 sec. (74.61 ticks, tree = 0.01 MB, solutions = 2)

Root node processing (before b&c):
  Real time             =    0.06 sec. (26.82 ticks)
Parallel b&c, 8 threads:
  Real time             =    0.00 sec. (0.00 ticks)
  Sync time (average)   =    0.00 sec.
  Wait time (average)   =    0.00 sec.
                          ------------
Total (root+branch&cut) =    0.06 sec. (26.82 ticks)
Version identifier: 22.1.1.0 | 2022-11-28 | 9160aff4d
CPXPARAM_Threads                                 8
CPXPARAM_Emphasis_MIP                            5
CPXPARAM_TimeLimit                               3600
CPXPARAM_MIP_Tolerances_MIPGap                   0.029999999999999999
Tried aggregator 3 times.
MIP Presolve eliminated 620 rows and 390 columns.
Aggregator did 113 substitutions.
Reduced MIP has 1062 rows, 775 columns, and 3689 nonzeros.
Reduced MIP has 645 binaries, 130 generals, 0 SOSs, and 0 indicators.
Presolve time = 0.01 sec. (5.98 ticks)
Probing fixed 103 vars, tightened 93 bounds.
Probing time = 0.01 sec. (5.16 ticks)
Tried aggregator 2 times.
MIP Presolve eliminated 158 rows and 111 columns.
Aggregator did 3 substitutions.
Reduced MIP has 901 rows, 661 columns, and 3100 nonzeros.
Reduced MIP has 531 binaries, 130 generals, 0 SOSs, and 0 indicators.
Presolve time = 0.01 sec. (4.67 ticks)
Probing time = 0.00 sec. (2.42 ticks)
Tried aggregator 1 time.
Detecting symmetries...
Reduced MIP has 901 rows, 661 columns, and 3100 nonzeros.
Reduced MIP has 531 binaries, 130 generals, 0 SOSs, and 0 indicators.
Presolve time = 0.00 sec. (2.04 ticks)
Probing time = 0.00 sec. (2.42 ticks)
Clique table members: 2148.
MIP emphasis: heuristic.
MIP search method: dynamic search.
Parallel mode: deterministic, using up to 8 threads.
Root relaxation solution time = 0.03 sec. (10.26 ticks)

        Nodes                                         Cuts/
   Node  Left     Objective  IInf  Best Integer    Best Bound    ItCnt     Gap

      0     0      254.0000   124                    254.0000      560         
*     0+    0                          299.0000      254.0000            15.05%
*     0+    0                          260.0000      254.0000             2.31%
      0     0        cutoff            260.0000      260.0000      652    0.00%
Elapsed time = 0.22 sec. (105.99 ticks, tree = 0.01 MB, solutions = 2)

Root node processing (before b&c):
  Real time             =    0.14 sec. (74.66 ticks)
Parallel b&c, 8 threads:
  Real time             =    0.00 sec. (0.00 ticks)
  Sync time (average)   =    0.00 sec.
  Wait time (average)   =    0.00 sec.
                          ------------
Total (root+branch&cut) =    0.14 sec. (74.66 ticks)
Version identifier: 22.1.1.0 | 2022-11-28 | 9160aff4d
CPXPARAM_Threads                                 8
CPXPARAM_Emphasis_MIP                            5
CPXPARAM_TimeLimit                               3600
CPXPARAM_MIP_Tolerances_MIPGap                   0.029999999999999999
Tried aggregator 3 times.
MIP Presolve eliminated 636 rows and 400 columns.
Aggregator did 122 substitutions.
Reduced MIP has 1135 rows, 825 columns, and 3946 nonzeros.
Reduced MIP has 687 binaries, 138 generals, 0 SOSs, and 0 indicators.
Presolve time = 0.01 sec. (6.35 ticks)
Probing fixed 115 vars, tightened 105 bounds.
Probing time = 0.01 sec. (5.80 ticks)
Tried aggregator 2 times.
MIP Presolve eliminated 176 rows and 123 columns.
Aggregator did 3 substitutions.
Reduced MIP has 956 rows, 699 columns, and 3291 nonzeros.
Reduced MIP has 561 binaries, 138 generals, 0 SOSs, and 0 indicators.
Presolve time = 0.01 sec. (4.96 ticks)
Probing time = 0.00 sec. (2.47 ticks)
Tried aggregator 1 time.
Detecting symmetries...
Reduced MIP has 956 rows, 699 columns, and 3291 nonzeros.
Reduced MIP has 561 binaries, 138 generals, 0 SOSs, and 0 indicators.
Presolve time = 0.00 sec. (2.16 ticks)
Probing time = 0.00 sec. (2.47 ticks)
Clique table members: 2290.
MIP emphasis: heuristic.
MIP search method: dynamic search.
Parallel mode: deterministic, using up to 8 threads.
Root relaxation solution time = 0.03 sec. (10.61 ticks)

        Nodes                                         Cuts/
   Node  Left     Objective  IInf  Best Integer    Best Bound    ItCnt     Gap

      0     0      254.0000   116                    254.0000      535         
*     0+    0                          298.0000      254.0000            14.77%
*     0+    0                          260.0000      254.0000             2.31%
      0     0        cutoff            260.0000      254.6000      652    2.08%
Elapsed time = 0.16 sec. (117.26 ticks, tree = 0.01 MB, solutions = 2)
Version identifier: 22.1.1.0 | 2022-11-28 | 9160aff4d
CPXPARAM_Threads                                 8
CPXPARAM_Emphasis_MIP                            5
CPXPARAM_TimeLimit                               3600
CPXPARAM_MIP_Tolerances_MIPGap                   0.029999999999999999
Tried aggregator 3 times.
MIP Presolve eliminated 805 rows and 497 columns.
Aggregator did 166 substitutions.
Reduced MIP has 1546 rows, 1126 columns, and 5476 nonzeros.
Reduced MIP has 974 binaries, 152 generals, 0 SOSs, and 0 indicators.
Presolve time = 0.02 sec. (9.31 ticks)
Probing fixed 124 vars, tightened 113 bounds.
Probing time = 0.01 sec. (9.52 ticks)
Tried aggregator 2 times.
MIP Presolve eliminated 191 rows and 131 columns.
Aggregator did 2 substitutions.
Reduced MIP has 1353 rows, 993 columns, and 4759 nonzeros.
Reduced MIP has 842 binaries, 151 generals, 0 SOSs, and 0 indicators.
Presolve time = 0.01 sec. (5.45 ticks)
Probing time = 0.00 sec. (2.79 ticks)
Tried aggregator 1 time.
Detecting symmetries...
Reduced MIP has 1353 rows, 993 columns, and 4759 nonzeros.
Reduced MIP has 842 binaries, 151 generals, 0 SOSs, and 0 indicators.
Presolve time = 0.00 sec. (3.10 ticks)
Probing time = 0.00 sec. (2.79 ticks)
Clique table members: 3241.
MIP emphasis: heuristic.
MIP search method: dynamic search.
Parallel mode: deterministic, using up to 8 threads.
Root relaxation solution time = 0.08 sec. (23.22 ticks)

        Nodes                                         Cuts/
   Node  Left     Objective  IInf  Best Integer    Best Bound    ItCnt     Gap

*     0+    0                          992.0000        0.0000           100.00%
      0     0      254.0000   109      992.0000      254.0000      896   74.40%
*     0+    0                          260.0000      254.0000             2.31%

Gomory fractional cuts applied:  2

Root node processing (before b&c):
  Real time             =    0.16 sec. (117.32 ticks)
Parallel b&c, 8 threads:
  Real time             =    0.00 sec. (0.00 ticks)
  Sync time (average)   =    0.00 sec.
  Wait time (average)   =    0.00 sec.
                          ------------
Total (root+branch&cut) =    0.16 sec. (117.32 ticks)

Zero-half cuts applied:  3
Gomory fractional cuts applied:  2

Root node processing (before b&c):
  Real time             =    0.22 sec. (106.05 ticks)
Parallel b&c, 8 threads:
  Real time             =    0.00 sec. (0.00 ticks)
  Sync time (average)   =    0.00 sec.
  Wait time (average)   =    0.00 sec.
                          ------------
Total (root+branch&cut) =    0.22 sec. (106.05 ticks)
Version identifier: 22.1.1.0 | 2022-11-28 | 9160aff4d
CPXPARAM_Threads                                 8
CPXPARAM_Emphasis_MIP                            5
CPXPARAM_TimeLimit                               3600
CPXPARAM_MIP_Tolerances_MIPGap                   0.029999999999999999
Tried aggregator 3 times.
MIP Presolve eliminated 972 rows and 589 columns.
Aggregator did 213 substitutions.
Reduced MIP has 1866 rows, 1342 columns, and 6594 nonzeros.
Reduced MIP has 1183 binaries, 159 generals, 0 SOSs, and 0 indicators.
Presolve time = 0.02 sec. (11.14 ticks)
Probing fixed 185 vars, tightened 167 bounds.
Probing time = 0.02 sec. (11.75 ticks)
Tried aggregator 2 times.
MIP Presolve eliminated 291 rows and 200 columns.
Aggregator did 3 substitutions.
Reduced MIP has 1572 rows, 1139 columns, and 5502 nonzeros.
Reduced MIP has 983 binaries, 156 generals, 0 SOSs, and 0 indicators.
Presolve time = 0.01 sec. (6.32 ticks)
Probing time = 0.00 sec. (2.77 ticks)
Tried aggregator 1 time.
Detecting symmetries...
Reduced MIP has 1572 rows, 1139 columns, and 5502 nonzeros.
Reduced MIP has 983 binaries, 156 generals, 0 SOSs, and 0 indicators.
Presolve time = 0.00 sec. (3.56 ticks)
Probing time = 0.00 sec. (2.76 ticks)
Clique table members: 3366.
MIP emphasis: heuristic.
MIP search method: dynamic search.
Parallel mode: deterministic, using up to 8 threads.
Root relaxation solution time = 0.05 sec. (24.73 ticks)

        Nodes                                         Cuts/
   Node  Left     Objective  IInf  Best Integer    Best Bound    ItCnt     Gap

      0     0      274.0000   118                    274.0000      914         
*     0+    0                          299.0000      274.0000             8.36%
*     0+    0                          298.0000      274.0000             8.05%
      0     0        cutoff            298.0000      298.0000      978    0.00%
Elapsed time = 0.25 sec. (195.86 ticks, tree = 0.01 MB, solutions = 2)

Zero-half cuts applied:  17
Lift and project cuts applied:  1
Gomory fractional cuts applied:  2

Root node processing (before b&c):
  Real time             =    0.25 sec. (195.94 ticks)
Parallel b&c, 8 threads:
  Real time             =    0.00 sec. (0.00 ticks)
  Sync time (average)   =    0.00 sec.
  Wait time (average)   =    0.00 sec.
                          ------------
Total (root+branch&cut) =    0.25 sec. (195.94 ticks)

Root node processing (before b&c):
  Real time             =    0.30 sec. (89.36 ticks)
Parallel b&c, 8 threads:
  Real time             =    0.00 sec. (0.00 ticks)
  Sync time (average)   =    0.00 sec.
  Wait time (average)   =    0.00 sec.
                          ------------
Total (root+branch&cut) =    0.30 sec. (89.36 ticks)

Zero-half cuts applied:  1
Lift and project cuts applied:  1
Gomory fractional cuts applied:  1

Root node processing (before b&c):
  Real time             =    0.09 sec. (38.16 ticks)
Parallel b&c, 8 threads:
  Real time             =    0.00 sec. (0.00 ticks)
  Sync time (average)   =    0.00 sec.
  Wait time (average)   =    0.00 sec.
                          ------------
Total (root+branch&cut) =    0.09 sec. (38.16 ticks)

Root node processing (before b&c):
  Real time             =    0.05 sec. (6.70 ticks)
Parallel b&c, 8 threads:
  Real time             =    0.00 sec. (0.00 ticks)
  Sync time (average)   =    0.00 sec.
  Wait time (average)   =    0.00 sec.
                          ------------
Total (root+branch&cut) =    0.05 sec. (6.70 ticks)
